154
1409
113
0 1
0 5
0 24
0 41
0 82
1 5
1 10
1 13
1 15
1 18
1 23
1 24
1 27
1 30
1 32
1 37
1 40
1 41
1 46
1 82
1 110
1 119
1 122
1 132
1 145
1 146
2 3
2 6
2 12
2 14
2 16
2 17
2 20
2 28
2 53
2 54
2 73
2 76
2 84
2 89
2 120
2 133
3 6
3 12
3 14
3 16
3 17
3 20
3 28
3 54
3 66
3 70
3 71
3 75
3 77
3 78
4 7
4 11
4 19
4 25
4 26
4 27
4 29
4 31
4 33
4 37
4 47
4 53
4 55
4 58
4 62
4 67
4 72
4 74
4 94
4 98
4 99
4 100
4 101
4 102
4 152
5 10
5 13
5 15
5 18
5 23
5 24
5 30
5 32
5 38
5 39
5 41
5 48
5 50
5 68
5 69
5 82
5 111
5 112
6 12
6 14
6 16
6 17
6 20
6 28
6 54
6 66
6 70
6 71
6 75
6 77
6 78
6 88
6 93
6 100
6 102
7 11
7 19
7 25
7 26
7 27
7 29
7 31
7 33
7 49
7 56
7 57
7 59
7 60
7 62
7 72
7 74
7 103
7 125
7 128
7 148
7 150
7 151
8 12
8 14
8 16
8 17
8 20
8 34
8 105
8 114
8 139
9 11
9 19
9 35
9 36
9 104
9 107
9 142
10 13
10 15
10 18
10 23
10 24
10 30
10 32
10 37
10 110
10 119
10 146
11 19
11 25
11 26
11 27
11 29
11 31
11 33
11 35
11 36
11 74
11 104
11 107
11 142
12 14
12 16
12 17
12 20
12 28
12 34
12 53
12 54
12 73
12 76
12 84
12 89
12 105
12 114
12 120
12 133
12 139
13 15
13 18
13 23
13 24
13 27
13 30
13 32
13 37
13 40
13 41
13 46
13 110
13 119
13 122
13 132
13 145
13 146
14 16
14 17
14 20
14 28
14 34
14 54
14 105
14 114
14 139
15 18
15 23
15 24
15 27
15 30
15 32
15 37
15 40
15 41
15 46
15 62
15 65
15 66
15 70
15 71
15 110
15 119
15 122
15 132
15 145
15 146
16 17
16 20
16 28
16 34
16 54
16 66
16 70
16 71
16 75
16 77
16 78
16 105
16 114
16 139
17 20
17 28
17 34
17 54
17 58
17 66
17 70
17 71
17 75
17 77
17 78
17 81
17 85
17 92
17 101
17 105
17 114
17 136
17 139
18 23
18 24
18 30
18 32
18 38
18 39
18 48
18 50
18 68
18 69
18 111
18 112
19 25
19 26
19 27
19 29
19 31
19 33
19 35
19 36
19 49
19 56
19 57
19 59
19 60
19 74
19 103
19 104
19 107
19 125
19 128
19 142
19 148
19 150
19 151
20 28
20 34
20 54
20 66
20 70
20 71
20 75
20 77
20 78
20 88
20 93
20 100
20 102
20 105
20 114
20 139
21 24
21 28
21 35
21 51
21 54
21 79
21 104
21 130
21 140
22 23
22 30
22 32
22 42
22 62
22 95
23 24
23 30
23 32
23 42
23 62
23 95
24 28
24 30
24 32
24 35
24 37
24 41
24 51
24 54
24 79
24 82
24 104
24 110
24 119
24 130
24 140
24 146
25 26
25 27
25 29
25 31
25 33
25 52
25 74
25 86
25 109
25 118
25 122
25 131
25 132
25 145
26 27
26 29
26 31
26 33
26 74
27 29
27 31
27 33
27 40
27 41
27 46
27 52
27 74
27 86
27 109
27 118
27 122
27 131
27 132
27 145
27 146
28 35
28 51
28 54
28 79
28 104
28 130
28 140
29 31
29 33
29 37
29 47
29 53
29 55
29 58
29 67
29 74
29 152
30 32
30 38
30 39
30 42
30 48
30 50
30 62
30 68
30 69
30 95
30 111
30 112
31 33
31 49
31 56
31 57
31 59
31 60
31 74
31 103
31 138
31 147
31 149
32 38
32 39
32 42
32 48
32 50
32 62
32 68
32 69
32 95
32 109
32 113
32 121
33 49
33 56
33 57
33 59
33 60
33 74
33 103
34 35
34 36
34 61
34 81
34 104
34 105
34 106
34 107
34 114
34 139
34 142
35 36
35 51
35 54
35 61
35 79
35 81
35 104
35 105
35 106
35 107
35 114
35 130
35 139
35 140
35 142
36 61
36 81
36 104
36 105
36 106
36 107
36 114
36 139
36 142
37 42
37 43
37 45
37 47
37 49
37 53
37 55
37 58
37 64
37 67
37 94
37 98
37 99
37 100
37 101
37 102
37 110
37 119
37 146
37 152
38 39
38 48
38 50
38 68
38 69
38 111
38 112
38 115
38 120
38 123
38 124
38 147
38 149
39 48
39 50
39 68
39 69
39 111
39 112
40 41
40 46
40 62
40 65
40 66
40 70
40 71
40 72
40 74
40 80
40 82
40 94
40 115
40 122
40 129
40 132
40 145
40 146
41 46
41 62
41 65
41 66
41 70
41 71
41 72
41 74
41 80
41 82
41 94
41 115
41 122
41 129
41 132
41 145
41 146
42 43
42 45
42 47
42 49
42 51
42 54
42 62
42 64
42 67
42 79
42 83
42 95
42 96
42 116
42 130
42 140
42 141
43 45
43 47
43 49
43 51
43 54
43 64
43 67
43 79
43 83
43 95
43 96
43 116
43 130
43 140
43 141
44 48
44 50
44 61
44 63
44 68
44 69
44 84
44 118
45 47
45 49
45 64
45 67
46 122
46 132
46 145
46 146
47 49
47 53
47 55
47 58
47 64
47 67
47 152
48 50
48 61
48 63
48 68
48 69
48 84
48 118
49 56
49 57
49 59
49 60
49 64
49 67
49 103
49 125
49 128
49 148
49 150
49 151
50 61
50 63
50 68
50 69
50 84
50 109
50 113
50 118
50 121
51 54
51 79
51 83
51 95
51 96
51 104
51 116
51 130
51 140
51 141
52 86
52 109
52 118
52 122
52 131
52 132
52 145
53 54
53 55
53 58
53 67
53 73
53 76
53 80
53 82
53 84
53 89
53 90
53 94
53 98
53 99
53 100
53 101
53 102
53 115
53 120
53 123
53 129
53 133
53 147
53 148
53 152
54 73
54 76
54 79
54 83
54 84
54 89
54 95
54 96
54 104
54 116
54 120
54 130
54 133
54 140
54 141
55 58
55 67
55 152
56 57
56 59
56 60
56 100
56 103
56 126
56 137
56 139
56 142
56 143
56 146
56 153
57 59
57 60
57 81
57 85
57 101
57 103
57 114
57 117
57 119
57 121
57 127
57 136
57 138
57 147
57 149
58 67
58 70
58 81
58 85
58 92
58 94
58 98
58 99
58 100
58 101
58 102
58 136
58 152
59 60
59 103
59 138
59 147
59 149
60 103
61 63
61 64
61 67
61 68
61 69
61 73
61 81
61 84
61 104
61 105
61 106
61 107
61 114
61 118
61 120
61 139
61 142
62 65
62 66
62 70
62 71
62 72
62 74
62 80
62 82
62 94
62 95
62 115
62 129
63 64
63 67
63 68
63 69
63 73
63 84
63 118
63 120
64 67
64 68
64 69
64 73
64 84
64 120
65 66
65 70
65 71
66 70
66 71
66 75
66 77
66 78
66 79
66 83
66 86
66 87
66 91
66 112
66 135
66 151
67 68
67 69
67 73
67 84
67 120
67 152
68 69
68 73
68 84
68 118
68 120
69 73
69 84
69 111
69 112
69 118
69 120
70 71
70 75
70 77
70 78
70 81
70 85
70 92
70 101
70 136
71 75
71 77
71 78
71 88
71 93
71 100
71 102
72 74
72 80
72 82
72 94
72 115
72 129
73 76
73 84
73 89
73 120
73 133
74 80
74 82
74 94
74 115
74 129
75 77
75 78
75 79
75 83
75 86
75 87
75 91
75 95
75 96
75 97
75 103
75 112
75 135
75 151
76 84
76 89
76 120
76 133
77 78
78 88
78 93
78 100
78 102
79 83
79 86
79 87
79 91
79 95
79 96
79 97
79 103
79 104
79 112
79 116
79 130
79 135
79 140
79 141
79 151
80 82
80 84
80 89
80 90
80 94
80 98
80 115
80 120
80 123
80 129
80 133
80 147
80 148
81 85
81 92
81 101
81 104
81 105
81 106
81 107
81 108
81 110
81 114
81 117
81 119
81 121
81 127
81 136
81 139
81 142
81 143
81 146
82 84
82 89
82 90
82 94
82 98
82 115
82 120
82 123
82 129
82 133
82 147
82 148
83 86
83 87
83 91
83 95
83 96
83 97
83 103
83 112
83 116
83 130
83 135
83 140
83 141
83 151
84 89
84 90
84 94
84 98
84 115
84 118
84 120
84 123
84 129
84 133
84 147
84 148
85 92
85 101
85 104
85 105
85 106
85 107
85 108
85 110
85 114
85 117
85 119
85 121
85 127
85 136
85 139
85 142
85 143
85 146
86 87
86 91
86 95
86 96
86 97
86 103
86 109
86 112
86 118
86 122
86 131
86 132
86 135
86 145
86 151
87 91
87 95
87 96
87 97
87 103
87 112
87 135
87 151
88 93
88 100
88 102
88 109
88 116
88 118
88 121
88 122
88 130
88 131
88 132
88 137
88 138
88 140
88 141
88 144
88 145
88 152
89 90
89 94
89 98
89 115
89 120
89 123
89 129
89 133
89 147
89 148
90 94
90 98
90 115
90 120
90 123
90 129
90 133
90 147
90 148
91 112
91 135
91 151
92 101
92 136
93 100
93 102
94 98
94 99
94 100
94 101
94 102
94 115
94 120
94 123
94 129
94 133
94 147
94 148
95 96
95 97
95 103
95 116
95 130
95 140
95 141
96 97
96 103
96 116
96 130
96 140
96 141
97 103
98 99
98 100
98 101
98 102
98 115
98 120
98 123
98 129
98 133
98 147
98 148
99 100
99 101
99 102
100 101
100 102
100 126
100 130
100 131
100 132
100 137
100 138
100 139
100 142
100 143
100 146
100 153
101 102
101 114
101 117
101 119
101 121
101 127
101 136
104 105
104 106
104 107
104 108
104 110
104 114
104 117
104 119
104 130
104 139
104 140
104 142
104 143
104 146
105 106
105 107
105 108
105 110
105 114
105 117
105 119
105 139
105 142
105 143
105 146
106 107
106 108
106 110
106 114
106 117
106 119
106 139
106 142
106 143
106 146
107 108
107 110
107 114
107 117
107 119
107 139
107 142
107 143
107 146
108 110
108 114
108 117
108 119
108 139
108 142
108 143
108 146
109 113
109 116
109 118
109 121
109 122
109 130
109 131
109 132
109 140
109 141
109 144
109 145
109 152
110 114
110 117
110 119
110 139
110 142
110 143
110 146
111 112
111 115
111 120
111 123
111 124
111 147
111 149
112 115
112 120
112 123
112 124
112 135
112 147
112 149
112 151
113 121
114 117
114 119
114 121
114 127
114 136
114 139
114 142
114 143
114 146
115 120
115 123
115 124
115 129
115 133
115 147
115 148
115 149
116 118
116 121
116 122
116 125
116 126
116 128
116 130
116 131
116 132
116 140
116 141
116 144
116 145
116 152
117 119
117 121
117 127
117 136
117 139
117 142
117 143
117 146
118 121
118 122
118 125
118 126
118 128
118 130
118 131
118 132
118 140
118 141
118 144
118 145
118 152
119 121
119 127
119 136
119 139
119 142
119 143
119 146
120 123
120 124
120 129
120 133
120 147
120 148
120 149
121 122
121 127
121 130
121 131
121 132
121 136
121 140
121 141
121 144
121 145
121 152
122 125
122 126
122 128
122 130
122 131
122 132
122 140
122 141
122 144
122 145
122 146
122 152
123 124
123 129
123 133
123 147
123 148
123 149
124 147
124 149
125 126
125 128
125 129
125 133
125 134
125 135
125 136
125 148
125 150
125 151
126 128
126 137
126 139
126 142
126 143
126 146
126 153
127 136
128 148
128 150
128 151
129 133
129 134
129 135
129 136
129 147
129 148
129 150
129 151
130 131
130 132
130 137
130 138
130 140
130 141
130 144
130 145
130 152
131 132
131 137
131 138
131 140
131 141
131 144
131 145
131 152
132 137
132 138
132 140
132 141
132 144
132 145
132 146
132 152
133 134
133 135
133 136
133 147
133 148
133 150
133 151
134 135
134 136
134 148
134 150
134 151
135 136
135 148
135 150
135 151
136 148
136 150
136 151
137 138
137 139
137 142
137 143
137 146
137 153
138 147
138 149
139 142
139 143
139 146
139 153
140 141
140 144
140 145
140 152
141 144
141 145
141 152
142 143
142 146
142 153
143 146
143 153
144 145
144 152
145 146
145 152
146 153
147 148
147 149
148 150
148 151
150 151
0
1 2
3 4
5
6 7
8
9
10
11
12 13
14 15
16
17 18
19 20
21
22
23
24 25
26
27
28
29
30 31
32 33
34 35
36
37 38
39
40
41 42
43
44
45
46
47
48
49
50
51
52
53 54
55
56 57
58 59
60
61 62
63
64
65
66 67
68
69 70
71
72
73
74 75
76
77
78
79 80
81 82
83
84 85
86
87 88
89
90
91
92
93
94
95
96
97
98
99
100 101
102
103
104 105
106
107
108
109 110
111
112
113
114 115
116
117 118
119 120
121
122
123
124 125
126 127
128
129 130
131
132 133
134
135
136 137
138
139 140
141 142
143
144
145 146
147 148
149 150
151 152
153
